784 1512
1 2 5
1 29 1
2 3 5
2 30 3
3 4 2
3 31 1
4 5 1
4 32 3
5 6 4
5 33 3
6 7 4
6 34 5
7 8 2
7 35 1
8 9 4
8 36 2
9 10 2
9 37 2
10 11 2
10 38 3
11 12 4
11 39 3
12 13 3
12 40 1
13 14 3
13 41 4
14 15 4
14 42 4
15 16 1
15 43 4
16 17 2
16 44 2
17 18 4
17 45 4
18 19 2
18 46 1
19 20 4
19 47 1
20 21 4
20 48 2
21 22 4
21 49 4
22 23 4
22 50 2
23 24 4
23 51 2
24 25 2
24 52 5
25 26 5
25 53 1
26 27 4
26 54 1
27 28 4
27 55 4
28 56 5
29 30 1
29 57 3
30 31 2
30 58 3
31 32 2
31 59 4
32 33 1
32 60 5
33 34 1
33 61 1
34 35 5
34 62 4
35 36 1
35 63 3
36 37 4
36 64 5
37 38 3
37 65 2
38 39 5
38 66 5
39 40 2
39 67 1
40 41 2
40 68 5
41 42 1
41 69 1
42 43 5
42 70 3
43 44 2
43 71 3
44 45 5
44 72 5
45 46 1
45 73 1
46 47 1
46 74 3
47 48 3
47 75 1
48 49 4
48 76 4
49 50 3
49 77 5
50 51 5
50 78 5
51 52 5
51 79 2
52 53 5
52 80 1
53 54 4
53 81 1
54 55 2
54 82 3
55 56 5
55 83 4
56 84 4
57 58 2
57 85 3
58 59 2
58 86 3
59 60 5
59 87 2
60 61 1
60 88 1
61 62 4
61 89 5
62 63 1
62 90 5
63 64 1
63 91 3
64 65 3
64 92 4
65 66 1
65 93 3
66 67 3
66 94 3
67 68 4
67 95 2
68 69 4
68 96 3
69 70 2
69 97 2
70 71 2
70 98 2
71 72 5
71 99 2
72 73 3
72 100 3
73 74 5
73 101 4
74 75 5
74 102 1
75 76 5
75 103 4
76 77 1
76 104 2
77 78 5
77 105 2
78 79 5
78 106 4
79 80 3
79 107 5
80 81 1
80 108 1
81 82 5
81 109 3
82 83 4
82 110 5
83 84 5
83 111 3
84 112 3
85 86 1
85 113 2
86 87 4
86 114 3
87 88 1
87 115 1
88 89 1
88 116 2
89 90 1
89 117 2
90 91 5
90 118 5
91 92 3
91 119 2
92 93 1
92 120 4
93 94 2
93 121 5
94 95 5
94 122 5
95 96 5
95 123 3
96 97 5
96 124 2
97 98 1
97 125 1
98 99 5
98 126 2
99 100 5
99 127 2
100 101 1
100 128 1
101 102 3
101 129 5
102 103 1
102 130 2
103 104 2
103 131 4
104 105 1
104 132 4
105 106 2
105 133 1
106 107 4
106 134 4
107 108 4
107 135 5
108 109 1
108 136 4
109 110 3
109 137 2
110 111 1
110 138 2
111 112 4
111 139 5
112 140 4
113 114 2
113 141 2
114 115 2
114 142 2
115 116 4
115 143 5
116 117 3
116 144 2
117 118 3
117 145 1
118 119 3
118 146 4
119 120 5
119 147 5
120 121 2
120 148 3
121 122 3
121 149 2
122 123 4
122 150 5
123 124 3
123 151 5
124 125 1
124 152 3
125 126 4
125 153 2
126 127 2
126 154 5
127 128 5
127 155 4
128 129 2
128 156 5
129 130 5
129 157 2
130 131 5
130 158 4
131 132 4
131 159 4
132 133 1
132 160 3
133 134 1
133 161 5
134 135 4
134 162 3
135 136 3
135 163 4
136 137 1
136 164 3
137 138 3
137 165 5
138 139 5
138 166 5
139 140 5
139 167 3
140 168 2
141 142 4
141 169 4
142 143 2
142 170 5
143 144 2
143 171 3
144 145 4
144 172 2
145 146 1
145 173 5
146 147 5
146 174 3
147 148 1
147 175 4
148 149 2
148 176 2
149 150 1
149 177 1
150 151 2
150 178 3
151 152 5
151 179 5
152 153 5
152 180 1
153 154 4
153 181 1
154 155 1
154 182 1
155 156 5
155 183 1
156 157 2
156 184 1
157 158 3
157 185 5
158 159 4
158 186 3
159 160 2
159 187 1
160 161 4
160 188 4
161 162 3
161 189 4
162 163 5
162 190 4
163 164 2
163 191 5
164 165 5
164 192 4
165 166 5
165 193 2
166 167 2
166 194 2
167 168 1
167 195 3
168 196 1
169 170 3
169 197 2
170 171 4
170 198 3
171 172 4
171 199 5
172 173 1
172 200 1
173 174 3
173 201 1
174 175 4
174 202 2
175 176 4
175 203 4
176 177 3
176 204 5
177 178 4
177 205 5
178 179 5
178 206 3
179 180 3
179 207 5
180 181 5
180 208 2
181 182 1
181 209 2
182 183 3
182 210 5
183 184 3
183 211 1
184 185 1
184 212 4
185 186 2
185 213 3
186 187 4
186 214 4
187 188 3
187 215 4
188 189 1
188 216 3
189 190 5
189 217 4
190 191 3
190 218 1
191 192 4
191 219 5
192 193 5
192 220 5
193 194 2
193 221 3
194 195 3
194 222 2
195 196 2
195 223 2
196 224 4
197 198 4
197 225 1
198 199 3
198 226 3
199 200 3
199 227 1
200 201 2
200 228 4
201 202 5
201 229 1
202 203 2
202 230 4
203 204 4
203 231 2
204 205 5
204 232 1
205 206 2
205 233 1
206 207 4
206 234 4
207 208 4
207 235 5
208 209 4
208 236 4
209 210 5
209 237 5
210 211 3
210 238 1
211 212 4
211 239 1
212 213 4
212 240 3
213 214 1
213 241 2
214 215 4
214 242 5
215 216 1
215 243 2
216 217 5
216 244 3
217 218 3
217 245 2
218 219 4
218 246 5
219 220 3
219 247 5
220 221 3
220 248 2
221 222 3
221 249 5
222 223 3
222 250 4
223 224 5
223 251 3
224 252 4
225 226 4
225 253 1
226 227 5
226 254 1
227 228 5
227 255 3
228 229 5
228 256 3
229 230 1
229 257 4
230 231 5
230 258 1
231 232 4
231 259 1
232 233 1
232 260 1
233 234 2
233 261 1
234 235 4
234 262 5
235 236 1
235 263 2
236 237 5
236 264 4
237 238 4
237 265 1
238 239 1
238 266 3
239 240 5
239 267 2
240 241 5
240 268 1
241 242 1
241 269 2
242 243 5
242 270 4
243 244 5
243 271 1
244 245 4
244 272 1
245 246 1
245 273 2
246 247 4
246 274 5
247 248 5
247 275 2
248 249 1
248 276 2
249 250 3
249 277 5
250 251 1
250 278 1
251 252 3
251 279 3
252 280 1
253 254 2
253 281 1
254 255 4
254 282 3
255 256 5
255 283 3
256 257 5
256 284 4
257 258 2
257 285 5
258 259 4
258 286 1
259 260 3
259 287 2
260 261 4
260 288 3
261 262 1
261 289 1
262 263 4
262 290 5
263 264 5
263 291 1
264 265 5
264 292 4
265 266 2
265 293 5
266 267 4
266 294 3
267 268 4
267 295 2
268 269 4
268 296 5
269 270 1
269 297 3
270 271 3
270 298 1
271 272 2
271 299 4
272 273 3
272 300 3
273 274 1
273 301 2
274 275 4
274 302 5
275 276 5
275 303 1
276 277 3
276 304 2
277 278 3
277 305 1
278 279 5
278 306 1
279 280 4
279 307 1
280 308 2
281 282 1
281 309 1
282 283 3
282 310 1
283 284 2
283 311 4
284 285 4
284 312 2
285 286 4
285 313 1
286 287 1
286 314 4
287 288 2
287 315 3
288 289 4
288 316 4
289 290 2
289 317 5
290 291 5
290 318 5
291 292 1
291 319 3
292 293 5
292 320 1
293 294 1
293 321 2
294 295 2
294 322 5
295 296 5
295 323 4
296 297 5
296 324 5
297 298 3
297 325 5
298 299 5
298 326 4
299 300 5
299 327 1
300 301 3
300 328 1
301 302 4
301 329 1
302 303 1
302 330 3
303 304 3
303 331 3
304 305 2
304 332 2
305 306 4
305 333 1
306 307 1
306 334 1
307 308 3
307 335 5
308 336 2
309 310 2
309 337 5
310 311 4
310 338 5
311 312 2
311 339 2
312 313 1
312 340 2
313 314 2
313 341 1
314 315 4
314 342 1
315 316 3
315 343 5
316 317 3
316 344 4
317 318 1
317 345 4
318 319 3
318 346 4
319 320 5
319 347 4
320 321 5
320 348 2
321 322 3
321 349 4
322 323 2
322 350 1
323 324 4
323 351 2
324 325 3
324 352 3
325 326 1
325 353 2
326 327 3
326 354 1
327 328 1
327 355 4
328 329 5
328 356 1
329 330 4
329 357 1
330 331 5
330 358 4
331 332 2
331 359 1
332 333 2
332 360 1
333 334 5
333 361 1
334 335 2
334 362 1
335 336 1
335 363 2
336 364 1
337 338 2
337 365 2
338 339 1
338 366 4
339 340 2
339 367 2
340 341 1
340 368 4
341 342 4
341 369 5
342 343 5
342 370 4
343 344 3
343 371 1
344 345 5
344 372 3
345 346 2
345 373 4
346 347 4
346 374 2
347 348 1
347 375 2
348 349 4
348 376 2
349 350 4
349 377 1
350 351 5
350 378 5
351 352 4
351 379 3
352 353 1
352 380 2
353 354 5
353 381 2
354 355 1
354 382 4
355 356 2
355 383 5
356 357 2
356 384 3
357 358 3
357 385 4
358 359 5
358 386 4
359 360 2
359 387 2
360 361 5
360 388 1
361 362 3
361 389 5
362 363 4
362 390 5
363 364 2
363 391 2
364 392 1
365 366 5
365 393 3
366 367 1
366 394 1
367 368 1
367 395 3
368 369 2
368 396 4
369 370 3
369 397 3
370 371 5
370 398 1
371 372 5
371 399 5
372 373 5
372 400 1
373 374 2
373 401 2
374 375 2
374 402 4
375 376 4
375 403 5
376 377 4
376 404 3
377 378 2
377 405 1
378 379 5
378 406 1
379 380 3
379 407 4
380 381 5
380 408 5
381 382 5
381 409 5
382 383 3
382 410 5
383 384 5
383 411 1
384 385 1
384 412 4
385 386 3
385 413 3
386 387 2
386 414 1
387 388 5
387 415 1
388 389 1
388 416 3
389 390 5
389 417 2
390 391 1
390 418 4
391 392 5
391 419 1
392 420 5
393 394 1
393 421 4
394 395 5
394 422 5
395 396 2
395 423 3
396 397 2
396 424 1
397 398 4
397 425 4
398 399 2
398 426 2
399 400 1
399 427 3
400 401 3
400 428 5
401 402 1
401 429 5
402 403 4
402 430 5
403 404 3
403 431 1
404 405 2
404 432 2
405 406 3
405 433 1
406 407 1
406 434 4
407 408 5
407 435 4
408 409 3
408 436 1
409 410 5
409 437 2
410 411 4
410 438 2
411 412 5
411 439 3
412 413 2
412 440 5
413 414 4
413 441 1
414 415 2
414 442 4
415 416 5
415 443 4
416 417 3
416 444 5
417 418 5
417 445 2
418 419 1
418 446 5
419 420 3
419 447 2
420 448 3
421 422 4
421 449 5
422 423 4
422 450 5
423 424 1
423 451 1
424 425 2
424 452 1
425 426 3
425 453 3
426 427 3
426 454 1
427 428 3
427 455 5
428 429 1
428 456 5
429 430 1
429 457 4
430 431 5
430 458 3
431 432 4
431 459 3
432 433 5
432 460 4
433 434 1
433 461 1
434 435 4
434 462 4
435 436 4
435 463 3
436 437 2
436 464 4
437 438 1
437 465 1
438 439 2
438 466 4
439 440 3
439 467 3
440 441 4
440 468 2
441 442 3
441 469 5
442 443 5
442 470 4
443 444 3
443 471 3
444 445 1
444 472 3
445 446 3
445 473 3
446 447 2
446 474 2
447 448 4
447 475 3
448 476 5
449 450 2
449 477 3
450 451 5
450 478 4
451 452 3
451 479 3
452 453 5
452 480 3
453 454 4
453 481 5
454 455 3
454 482 1
455 456 1
455 483 5
456 457 5
456 484 4
457 458 2
457 485 2
458 459 5
458 486 3
459 460 1
459 487 2
460 461 3
460 488 4
461 462 1
461 489 3
462 463 5
462 490 3
463 464 3
463 491 2
464 465 1
464 492 1
465 466 5
465 493 5
466 467 1
466 494 4
467 468 4
467 495 3
468 469 1
468 496 4
469 470 4
469 497 3
470 471 1
470 498 1
471 472 5
471 499 3
472 473 3
472 500 2
473 474 2
473 501 1
474 475 1
474 502 4
475 476 4
475 503 5
476 504 1
477 478 1
477 505 5
478 479 5
478 506 1
479 480 5
479 507 5
480 481 1
480 508 1
481 482 1
481 509 4
482 483 1
482 510 3
483 484 5
483 511 3
484 485 2
484 512 2
485 486 4
485 513 1
486 487 3
486 514 1
487 488 1
487 515 1
488 489 1
488 516 2
489 490 5
489 517 3
490 491 1
490 518 2
491 492 4
491 519 4
492 493 2
492 520 5
493 494 1
493 521 5
494 495 1
494 522 1
495 496 1
495 523 5
496 497 2
496 524 4
497 498 2
497 525 2
498 499 3
498 526 5
499 500 2
499 527 3
500 501 2
500 528 3
501 502 4
501 529 2
502 503 2
502 530 3
503 504 4
503 531 2
504 532 5
505 506 2
505 533 4
506 507 3
506 534 3
507 508 4
507 535 1
508 509 4
508 536 5
509 510 1
509 537 2
510 511 5
510 538 1
511 512 1
511 539 4
512 513 1
512 540 3
513 514 1
513 541 1
514 515 3
514 542 3
515 516 5
515 543 4
516 517 4
516 544 5
517 518 3
517 545 2
518 519 5
518 546 5
519 520 3
519 547 2
520 521 3
520 548 2
521 522 2
521 549 2
522 523 4
522 550 4
523 524 2
523 551 4
524 525 5
524 552 1
525 526 1
525 553 3
526 527 5
526 554 1
527 528 2
527 555 2
528 529 2
528 556 3
529 530 3
529 557 2
530 531 1
530 558 5
531 532 2
531 559 1
532 560 1
533 534 1
533 561 4
534 535 2
534 562 1
535 536 5
535 563 2
536 537 1
536 564 3
537 538 4
537 565 1
538 539 2
538 566 4
539 540 5
539 567 5
540 541 2
540 568 4
541 542 3
541 569 5
542 543 3
542 570 1
543 544 2
543 571 3
544 545 2
544 572 3
545 546 1
545 573 1
546 547 2
546 574 3
547 548 5
547 575 5
548 549 1
548 576 5
549 550 1
549 577 4
550 551 4
550 578 3
551 552 4
551 579 4
552 553 2
552 580 3
553 554 1
553 581 1
554 555 4
554 582 5
555 556 5
555 583 3
556 557 4
556 584 2
557 558 2
557 585 2
558 559 5
558 586 4
559 560 1
559 587 1
560 588 1
561 562 3
561 589 5
562 563 1
562 590 1
563 564 1
563 591 1
564 565 4
564 592 4
565 566 5
565 593 1
566 567 4
566 594 5
567 568 3
567 595 1
568 569 3
568 596 5
569 570 1
569 597 1
570 571 4
570 598 1
571 572 1
571 599 5
572 573 4
572 600 1
573 574 3
573 601 2
574 575 4
574 602 1
575 576 4
575 603 1
576 577 2
576 604 1
577 578 4
577 605 1
578 579 1
578 606 1
579 580 1
579 607 1
580 581 5
580 608 2
581 582 1
581 609 1
582 583 2
582 610 2
583 584 3
583 611 1
584 585 3
584 612 4
585 586 5
585 613 1
586 587 5
586 614 5
587 588 1
587 615 2
588 616 4
589 590 3
589 617 5
590 591 5
590 618 2
591 592 3
591 619 2
592 593 4
592 620 4
593 594 3
593 621 5
594 595 1
594 622 2
595 596 1
595 623 5
596 597 1
596 624 2
597 598 2
597 625 2
598 599 1
598 626 5
599 600 3
599 627 2
600 601 5
600 628 2
601 602 3
601 629 5
602 603 4
602 630 5
603 604 4
603 631 5
604 605 5
604 632 5
605 606 2
605 633 5
606 607 1
606 634 3
607 608 1
607 635 1
608 609 1
608 636 1
609 610 1
609 637 4
610 611 5
610 638 3
611 612 3
611 639 3
612 613 5
612 640 5
613 614 1
613 641 4
614 615 1
614 642 5
615 616 2
615 643 5
616 644 4
617 618 1
617 645 2
618 619 1
618 646 1
619 620 3
619 647 3
620 621 3
620 648 4
621 622 4
621 649 2
622 623 2
622 650 2
623 624 2
623 651 5
624 625 1
624 652 4
625 626 4
625 653 1
626 627 1
626 654 5
627 628 3
627 655 5
628 629 2
628 656 1
629 630 1
629 657 3
630 631 2
630 658 5
631 632 5
631 659 2
632 633 4
632 660 5
633 634 5
633 661 2
634 635 3
634 662 2
635 636 1
635 663 3
636 637 1
636 664 3
637 638 5
637 665 3
638 639 1
638 666 5
639 640 4
639 667 5
640 641 1
640 668 3
641 642 4
641 669 5
642 643 4
642 670 4
643 644 3
643 671 4
644 672 5
645 646 1
645 673 1
646 647 4
646 674 4
647 648 2
647 675 4
648 649 1
648 676 5
649 650 3
649 677 5
650 651 4
650 678 3
651 652 2
651 679 4
652 653 3
652 680 1
653 654 1
653 681 5
654 655 3
654 682 1
655 656 3
655 683 4
656 657 4
656 684 1
657 658 3
657 685 2
658 659 1
658 686 2
659 660 4
659 687 2
660 661 3
660 688 1
661 662 3
661 689 5
662 663 4
662 690 1
663 664 1
663 691 2
664 665 3
664 692 5
665 666 3
665 693 2
666 667 5
666 694 3
667 668 1
667 695 1
668 669 5
668 696 4
669 670 5
669 697 4
670 671 4
670 698 3
671 672 3
671 699 4
672 700 1
673 674 1
673 701 5
674 675 4
674 702 3
675 676 5
675 703 2
676 677 2
676 704 4
677 678 4
677 705 4
678 679 1
678 706 3
679 680 5
679 707 5
680 681 1
680 708 4
681 682 3
681 709 1
682 683 1
682 710 1
683 684 2
683 711 1
684 685 2
684 712 4
685 686 5
685 713 2
686 687 2
686 714 5
687 688 5
687 715 3
688 689 2
688 716 5
689 690 5
689 717 1
690 691 4
690 718 2
691 692 4
691 719 4
692 693 1
692 720 2
693 694 1
693 721 4
694 695 2
694 722 3
695 696 2
695 723 3
696 697 5
696 724 4
697 698 1
697 725 1
698 699 3
698 726 2
699 700 3
699 727 2
700 728 3
701 702 4
701 729 4
702 703 2
702 730 1
703 704 4
703 731 2
704 705 3
704 732 3
705 706 1
705 733 3
706 707 5
706 734 5
707 708 2
707 735 2
708 709 3
708 736 3
709 710 2
709 737 4
710 711 5
710 738 5
711 712 5
711 739 5
712 713 4
712 740 5
713 714 4
713 741 4
714 715 2
714 742 1
715 716 1
715 743 1
716 717 5
716 744 5
717 718 2
717 745 3
718 719 4
718 746 1
719 720 3
719 747 2
720 721 2
720 748 4
721 722 1
721 749 3
722 723 2
722 750 3
723 724 1
723 751 5
724 725 2
724 752 1
725 726 2
725 753 1
726 727 2
726 754 3
727 728 3
727 755 2
728 756 1
729 730 3
729 757 3
730 731 2
730 758 4
731 732 3
731 759 1
732 733 1
732 760 3
733 734 5
733 761 5
734 735 4
734 762 3
735 736 5
735 763 2
736 737 3
736 764 5
737 738 2
737 765 2
738 739 1
738 766 2
739 740 3
739 767 1
740 741 4
740 768 2
741 742 4
741 769 2
742 743 3
742 770 2
743 744 1
743 771 4
744 745 5
744 772 5
745 746 2
745 773 3
746 747 3
746 774 2
747 748 2
747 775 2
748 749 2
748 776 5
749 750 1
749 777 1
750 751 5
750 778 3
751 752 2
751 779 3
752 753 2
752 780 5
753 754 5
753 781 5
754 755 2
754 782 4
755 756 4
755 783 1
756 784 5
757 758 5
758 759 4
759 760 5
760 761 4
761 762 4
762 763 5
763 764 4
764 765 4
765 766 2
766 767 2
767 768 5
768 769 5
769 770 3
770 771 5
771 772 1
772 773 2
773 774 4
774 775 3
775 776 4
776 777 2
777 778 3
778 779 3
779 780 2
780 781 4
781 782 5
782 783 4
783 784 3
